NAME: n400q1000F.tsp, 400 nodes, semilla 555
COMMENT: Problema aleatorio de norma euclidea
DIMENSION: 400
CAPACITY: 1000
EDGE_WEIGHT_TYPE: EUC_2D
NODE_COORD_SECTION
1   0.0000   0.0000
2 -190.0000 352.0000
3 -499.0000 -350.0000
4 -55.0000 313.0000
5 -219.0000 340.0000
6 -193.0000 -388.0000
7 279.0000 -430.0000
8 -47.0000 -281.0000
9 270.0000 -80.0000
10 169.0000 -240.0000
11 -291.0000 -261.0000
12 328.0000 -142.0000
13 117.0000 313.0000
14 -169.0000 -87.0000
15 474.0000 378.0000
16 -238.0000 -472.0000
17  40.0000  71.0000
18 342.0000 -415.0000
19 -414.0000 202.0000
20  13.0000 173.0000
21 -365.0000 175.0000
22 -393.0000 -492.0000
23 360.0000 417.0000
24 -229.0000 -41.0000
25 -282.0000 -25.0000
26 -433.0000 -437.0000
27 416.0000  56.0000
28 244.0000 -447.0000
29 356.0000 157.0000
30 -403.0000 -275.0000
31 223.0000 495.0000
32 -183.0000 -300.0000
33 -58.0000 249.0000
34 -313.0000 177.0000
35 -90.0000  47.0000
36  66.0000 417.0000
37 -426.0000 -369.0000
38 261.0000 -83.0000
39 -452.0000 -26.0000
40 232.0000  72.0000
41 -372.0000 -225.0000
42 244.0000 370.0000
43 -320.0000 -329.0000
44 -196.0000 -68.0000
45 -203.0000 -180.0000
46 380.0000 -51.0000
47 -270.0000 -296.0000
48 -354.0000 -35.0000
49 383.0000 -208.0000
50 419.0000 256.0000
51 491.0000 -422.0000
52 -225.0000 348.0000
53 230.0000 -258.0000
54 -72.0000 -97.0000
55  25.0000  44.0000
56 376.0000 163.0000
57 -254.0000 -306.0000
58 441.0000 -93.0000
59 -260.0000 -409.0000
60 -464.0000 -141.0000
61 487.0000 301.0000
62 389.0000 -366.0000
63 -212.0000 -197.0000
64 -238.0000 -93.0000
65 139.0000 -342.0000
66 -326.0000 -315.0000
67  96.0000 -118.0000
68  61.0000 -72.0000
69 300.0000  83.0000
70 -135.0000 -199.0000
71 424.0000 424.0000
72 418.0000 -240.0000
73 -121.0000  46.0000
74 189.0000 -361.0000
75 -180.0000 217.0000
76 -319.0000 -147.0000
77 -462.0000 -16.0000
78 -376.0000 100.0000
79 -365.0000 -478.0000
80 -219.0000 464.0000
81 -413.0000 -110.0000
82 -154.0000  66.0000
83 173.0000 -97.0000
84 -357.0000 -301.0000
85 -154.0000 -458.0000
86  47.0000 -315.0000
87 361.0000 308.0000
88 447.0000 -26.0000
89 203.0000 294.0000
90 241.0000 302.0000
91 128.0000 108.0000
92 279.0000  19.0000
93 429.0000  30.0000
94 340.0000 403.0000
95 496.0000 -483.0000
96 494.0000 -77.0000
97 165.0000 301.0000
98 116.0000 -35.0000
99 154.0000 353.0000
100 -278.0000 327.0000
101 229.0000 -448.0000
102 243.0000 -175.0000
103 -99.0000 279.0000
104 -346.0000  38.0000
105 190.0000 -321.0000
106 -324.0000 -400.0000
107 321.0000 288.0000
108 -383.0000 -418.0000
109 -62.0000 142.0000
110  49.0000 103.0000
111 -188.0000 139.0000
112 333.0000 -309.0000
113 -318.0000 -211.0000
114 -306.0000 223.0000
115 152.0000 337.0000
116 -398.0000 362.0000
117 410.0000  88.0000
118  12.0000 302.0000
119  90.0000 -311.0000
120 480.0000 305.0000
121 448.0000 448.0000
122  63.0000 -260.0000
123 -267.0000 -59.0000
124 -448.0000 -349.0000
125 208.0000 336.0000
126 -407.0000 263.0000
127 -67.0000 132.0000
128 140.0000  65.0000
129 475.0000  25.0000
130 -492.0000 416.0000
131  29.0000 350.0000
132  -6.0000 -292.0000
133 -53.0000 -26.0000
134 171.0000 396.0000
135 -110.0000 -21.0000
136 165.0000 245.0000
137 113.0000 465.0000
138 -238.0000 -101.0000
139 221.0000 -52.0000
140 -117.0000 -75.0000
141 448.0000 -60.0000
142 297.0000 380.0000
143 -267.0000 472.0000
144 392.0000 461.0000
145 -217.0000  -7.0000
146 -418.0000 -144.0000
147 330.0000 -112.0000
148 250.0000 391.0000
149 234.0000  43.0000
150 328.0000 -110.0000
151  11.0000 -412.0000
152 -340.0000 -85.0000
153 457.0000 138.0000
154 156.0000 -474.0000
155 -447.0000 116.0000
156 283.0000 -477.0000
157 -304.0000 -173.0000
158 -20.0000 -242.0000
159  -6.0000 -473.0000
160 212.0000 -121.0000
161 373.0000 -475.0000
162 427.0000 358.0000
163 -185.0000  72.0000
164 -333.0000 321.0000
165 -274.0000 438.0000
166 -190.0000 -462.0000
167 383.0000 348.0000
168  21.0000 -438.0000
169 280.0000 -116.0000
170 -346.0000 -197.0000
171 -286.0000 413.0000
172 368.0000 -156.0000
173 129.0000 -52.0000
174 -449.0000 -99.0000
175 254.0000 -174.0000
176 -106.0000 -26.0000
177 151.0000 462.0000
178 -189.0000 -292.0000
179 229.0000 485.0000
180 -123.0000 228.0000
181 478.0000 151.0000
182 273.0000 130.0000
183 -156.0000 -212.0000
184 249.0000 484.0000
185  55.0000 -266.0000
186 -81.0000 -118.0000
187 438.0000 272.0000
188 -143.0000  17.0000
189 451.0000 264.0000
190 413.0000 -415.0000
191 -272.0000 -103.0000
192 -394.0000 220.0000
193 -452.0000 -44.0000
194 -169.0000 -40.0000
195  -6.0000 103.0000
196 -312.0000 262.0000
197 380.0000 415.0000
198 -369.0000 427.0000
199 -244.0000 -405.0000
200 216.0000 -137.0000
201  12.0000 496.0000
202 408.0000 189.0000
203 375.0000 -252.0000
204 110.0000 -86.0000
205 -34.0000 -419.0000
206 220.0000 -446.0000
207 -385.0000 122.0000
208 157.0000 -489.0000
209 -100.0000 469.0000
210 -465.0000 139.0000
211 -480.0000 135.0000
212 -454.0000 392.0000
213 -313.0000  76.0000
214 -183.0000 157.0000
215 158.0000 153.0000
216 201.0000 -228.0000
217 -16.0000 -477.0000
218 -168.0000 -350.0000
219 387.0000 129.0000
220 201.0000 -97.0000
221 -421.0000 253.0000
222 420.0000 -177.0000
223 -203.0000 119.0000
224 298.0000 328.0000
225  71.0000  11.0000
226  66.0000 -228.0000
227 -106.0000 180.0000
228  78.0000   9.0000
229 -49.0000 -239.0000
230 -206.0000  88.0000
231 306.0000 -458.0000
232 357.0000  99.0000
233 -60.0000 246.0000
234 -304.0000 -142.0000
235  92.0000 -136.0000
236 -233.0000  96.0000
237  24.0000 176.0000
238 254.0000 -391.0000
239 -95.0000 -337.0000
240 -113.0000  38.0000
241 293.0000 -331.0000
242 289.0000 -107.0000
243 -45.0000 -466.0000
244 -454.0000 323.0000
245 -444.0000 -133.0000
246 -456.0000 187.0000
247 -96.0000 235.0000
248 -220.0000 -76.0000
249 -394.0000 -127.0000
250 -472.0000 -483.0000
251 -215.0000 328.0000
252 163.0000 -436.0000
253 -129.0000 -212.0000
254 450.0000 400.0000
255 251.0000 -309.0000
256 -47.0000 -405.0000
257 -370.0000 308.0000
258 -373.0000 -268.0000
259 225.0000 -346.0000
260 318.0000 428.0000
261 254.0000 -356.0000
262  75.0000 -72.0000
263 -360.0000 167.0000
264 -331.0000 374.0000
265 -152.0000 461.0000
266 343.0000 459.0000
267 209.0000 -175.0000
268 -158.0000 196.0000
269 -482.0000 379.0000
270 -473.0000 420.0000
271 363.0000 -398.0000
272 402.0000 -162.0000
273 -22.0000 103.0000
274 225.0000 -437.0000
275 207.0000 -309.0000
276 -292.0000 -459.0000
277 -139.0000 -117.0000
278 420.0000  53.0000
279 -350.0000 -333.0000
280 400.0000   2.0000
281 360.0000 305.0000
282 486.0000 324.0000
283 -138.0000 124.0000
284 439.0000 -232.0000
285 -33.0000  13.0000
286 262.0000 -372.0000
287 -15.0000 -44.0000
288 314.0000 494.0000
289 297.0000 310.0000
290 322.0000 392.0000
291  85.0000 -275.0000
292 -335.0000  -2.0000
293 -207.0000 -311.0000
294 -133.0000 -261.0000
295 286.0000 -242.0000
296 -10.0000 409.0000
297 -96.0000  85.0000
298 -212.0000 -281.0000
299 -81.0000 -152.0000
300  -8.0000 408.0000
301 281.0000 -472.0000
302 -242.0000 258.0000
303 -155.0000   9.0000
304 -359.0000 -124.0000
305 -317.0000 -39.0000
306 111.0000 427.0000
307  26.0000 -235.0000
308 -217.0000 487.0000
309 298.0000 -60.0000
310 495.0000 -262.0000
311 348.0000 -304.0000
312  95.0000 -383.0000
313 -393.0000 -46.0000
314 106.0000 -475.0000
315   4.0000 389.0000
316 -355.0000 -100.0000
317 -108.0000 382.0000
318  72.0000 -260.0000
319 -416.0000 178.0000
320 -490.0000 416.0000
321 -240.0000 -367.0000
322 -120.0000 -82.0000
323 184.0000 -255.0000
324  62.0000 -417.0000
325 457.0000 -170.0000
326 408.0000 -303.0000
327 -380.0000 -175.0000
328 -454.0000 -230.0000
329 -107.0000 -321.0000
330  87.0000 -410.0000
331 493.0000 227.0000
332 -281.0000 -157.0000
333 -241.0000  38.0000
334 -180.0000  11.0000
335 -176.0000 -194.0000
336 -79.0000 433.0000
337 289.0000 -251.0000
338 -364.0000  80.0000
339 -146.0000 -468.0000
340 142.0000 448.0000
341 412.0000 399.0000
342 -264.0000 -158.0000
343 -433.0000 -278.0000
344  48.0000 -402.0000
345 -447.0000 -428.0000
346 -364.0000 -270.0000
347 442.0000 -389.0000
348 -290.0000 -274.0000
349 -484.0000  41.0000
350 -359.0000 -489.0000
351 174.0000 -66.0000
352  51.0000 -399.0000
353  92.0000 -491.0000
354 412.0000 -136.0000
355 -147.0000 -317.0000
356  70.0000 -104.0000
357 445.0000 -75.0000
358 -140.0000 -173.0000
359 403.0000 -110.0000
360 -288.0000 -53.0000
361 -19.0000 -46.0000
362 -320.0000 -199.0000
363 123.0000 412.0000
364 449.0000 -74.0000
365 -446.0000 -290.0000
366 199.0000 415.0000
367 -77.0000 -472.0000
368 -52.0000 -58.0000
369  59.0000 -342.0000
370  31.0000 495.0000
371 443.0000 -80.0000
372 -466.0000  96.0000
373 130.0000 306.0000
374 -41.0000 -419.0000
375 258.0000 -471.0000
376 291.0000 -446.0000
377 328.0000 -473.0000
378 -60.0000 -373.0000
379 -440.0000 199.0000
380 481.0000 -368.0000
381 -135.0000 -19.0000
382 416.0000 405.0000
383 -427.0000 486.0000
384  67.0000 -95.0000
385 212.0000  19.0000
386 110.0000 165.0000
387 -431.0000 -110.0000
388 -137.0000 -432.0000
389 -123.0000 446.0000
390 231.0000 -464.0000
391 -222.0000 464.0000
392 -56.0000 -493.0000
393 186.0000 238.0000
394 -376.0000 -233.0000
395 154.0000 466.0000
396 453.0000 231.0000
397 345.0000 494.0000
398 233.0000 359.0000
399 -154.0000 -136.0000
400  41.0000 -246.0000
DISPLAY_DATA_SECTION:
 1  250  250
 2  155  426
 3    0   75
 4  222  406
 5  140  420
 6  153   56
 7  389   35
 8  226  109
 9  385  210
10  334  130
11  104  119
12  414  179
13  308  406
14  165  206
15  487  439
16  131   14
17  270  285
18  421   42
19   43  351
20  256  336
21   67  337
22   53    4
23  430  458
24  135  229
25  109  237
26   33   31
27  458  278
28  372   26
29  428  328
30   48  112
31  361  497
32  158  100
33  221  374
34   93  338
35  205  273
36  283  458
37   37   65
38  380  208
39   24  237
40  366  286
41   64  137
42  372  435
43   90   85
44  152  216
45  148  160
46  440  224
47  115  102
48   73  232
49  441  146
50  459  378
51  495   39
52  137  424
53  365  121
54  214  201
55  262  272
56  438  331
57  123   97
58  470  203
59  120   45
60   18  179
61  493  400
62  444   67
63  144  151
64  131  203
65  319   79
66   87   92
67  298  191
68  280  214
69  400  291
70  182  150
71  462  462
72  459  130
73  189  273
74  344   69
75  160  358
76   90  176
77   19  242
78   62  300
79   67   11
80  140  482
81   43  195
82  173  283
83  336  201
84   71   99
85  173   21
86  273   92
87  430  404
88  473  237
89  351  397
90  370  401
91  314  304
92  389  259
93  464  265
94  420  451
95  498    8
96  497  211
97  332  400
98  308  232
99  327  426
100  111  413
101  364   26
102  371  162
103  200  389
104   77  269
105  345   89
106   88   50
107  410  394
108   58   41
109  219  321
110  274  301
111  156  319
112  416   95
113   91  144
114   97  361
115  326  418
116   51  431
117  455  294
118  256  401
119  295   94
120  490  402
121  474  474
122  281  120
123  116  220
124   26   75
125  354  418
126   46  381
127  216  316
128  320  282
129  487  262
130    4  458
131  264  425
132  247  104
133  223  237
134  335  448
135  195  239
136  332  372
137  306  482
138  131  199
139  360  224
140  191  212
141  474  220
142  398  440
143  116  486
144  446  480
145  141  246
146   41  178
147  415  194
148  375  445
149  367  271
150  414  195
151  255   44
152   80  207
153  478  319
154  328   13
155   26  308
156  391   11
157   98  163
158  240  129
159  247   13
160  356  189
161  436   12
162  463  429
163  157  286
164   83  410
165  113  469
166  155   19
167  441  424
168  260   31
169  390  192
170   77  151
171  107  456
172  434  172
173  314  224
174   25  200
175  377  163
176  197  237
177  325  481
178  155  104
179  364  492
180  188  364
181  489  325
182  386  315
183  172  144
184  374  492
185  277  117
186  209  191
187  469  386
188  178  258
189  475  382
190  456   42
191  114  198
192   53  360
193   24  228
194  165  230
195  247  301
196   94  381
197  440  457
198   65  463
199  128   47
200  358  181
201  256  498
202  454  344
203  437  124
204  305  207
205  233   40
206  360   27
207   57  311
208  328    5
209  200  484
210   17  319
211   10  317
212   23  446
213   93  288
214  158  328
215  329  326
216  350  136
217  242   11
218  166   75
219  443  314
220  350  201
221   39  376
222  460  161
223  148  309
224  399  414
225  285  255
226  283  136
227  197  340
228  289  254
229  225  130
230  147  294
231  403   21
232  428  299
233  220  373
234   98  179
235  296  182
236  133  298
237  262  338
238  377   54
239  202   81
240  193  269
241  396   84
242  394  196
243  227   17
244   23  411
245   28  183
246   22  343
247  202  367
248  140  212
249   53  186
250   14    8
251  142  414
252  331   32
253  185  144
254  475  450
255  375   95
256  226   47
257   65  404
258   63  116
259  362   77
260  409  464
261  377   72
262  287  214
263   70  333
264   84  437
265  174  480
266  421  479
267  354  162
268  171  348
269    9  439
270   13  460
271  431   51
272  451  169
273  239  301
274  362   31
275  353   95
276  104   20
277  180  191
278  460  276
279   75   83
280  450  251
281  430  402
282  493  412
283  181  312
284  469  134
285  233  256
286  381   64
287  242  228
288  407  497
289  398  405
290  411  446
291  292  112
292   82  249
293  146   94
294  183  119
295  393  129
296  245  454
297  202  292
298  144  109
299  209  174
300  246  454
301  390   14
302  129  379
303  172  254
304   70  188
305   91  230
306  305  463
307  263  132
308  141  493
309  399  220
310  497  119
311  424   98
312  297   58
313   53  227
314  303   12
315  252  444
316   72  200
317  196  441
318  286  120
319   42  339
320    5  458
321  130   66
322  190  209
323  342  122
324  281   41
325  478  165
326  454   98
327   60  162
328   23  135
329  196   89
330  293   45
331  496  363
332  109  171
333  129  269
334  160  255
335  162  153
336  210  466
337  394  124
338   68  290
339  177   16
340  321  474
341  456  449
342  118  171
343   33  111
344  274   49
345   26   36
346   68  115
347  471   55
348  105  113
349    8  270
350   70    5
351  337  217
352  275   50
353  296    4
354  456  182
355  176   91
356  285  198
357  472  212
358  180  163
359  451  195
360  106  223
361  240  227
362   90  150
363  311  456
364  474  213
365   27  105
366  349  457
367  211   14
368  224  221
369  279   79
370  265  497
371  471  210
372   17  298
373  315  403
374  229   40
375  379   14
376  395   27
377  414   13
378  220   63
379   30  349
380  490   66
381  182  240
382  458  452
383   36  493
384  283  202
385  356  259
386  305  332
387   34  195
388  181   34
389  188  473
390  365   18
391  139  482
392  222    3
393  343  369
394   62  133
395  327  483
396  476  365
397  422  497
398  366  429
399  173  182
400  270  127
DEMAND_SECTION
1 -10
2 6
3 -4
4 5
5 9
6 7
7 2
8 10
9 10
10 -6
11 3
12 -2
13 -5
14 9
15 7
16 5
17 6
18 6
19 5
20 7
21 -7
22 -3
23 -7
24 -9
25 2
26 -7
27 0
28 5
29 0
30 -8
31 3
32 1
33 -7
34 7
35 1
36 7
37 2
38 2
39 4
40 -1
41 1
42 0
43 -9
44 -5
45 0
46 0
47 5
48 5
49 -6
50 0
51 8
52 8
53 -1
54 -7
55 0
56 0
57 -7
58 -9
59 1
60 8
61 5
62 -9
63 4
64 3
65 6
66 4
67 6
68 -5
69 -4
70 -8
71 6
72 1
73 -3
74 10
75 -8
76 9
77 5
78 10
79 -7
80 -2
81 -8
82 7
83 -4
84 -9
85 -9
86 2
87 -8
88 -1
89 -4
90 0
91 -7
92 7
93 -1
94 -2
95 -6
96 -8
97 4
98 2
99 2
100 9
101 -1
102 7
103 10
104 -8
105 2
106 -3
107 -2
108 -2
109 5
110 5
111 2
112 -7
113 -6
114 8
115 8
116 5
117 7
118 4
119 7
120 2
121 5
122 4
123 -3
124 5
125 -1
126 -5
127 10
128 7
129 1
130 -4
131 -8
132 7
133 -6
134 3
135 -3
136 5
137 3
138 0
139 6
140 10
141 -4
142 -10
143 -3
144 -6
145 8
146 4
147 0
148 -6
149 6
150 1
151 -3
152 0
153 -1
154 -3
155 4
156 -2
157 -9
158 7
159 7
160 3
161 -7
162 -7
163 2
164 -2
165 5
166 0
167 1
168 -5
169 1
170 -7
171 1
172 1
173 3
174 8
175 -8
176 7
177 0
178 -1
179 -5
180 7
181 7
182 -5
183 -7
184 0
185 2
186 10
187 -6
188 -9
189 -6
190 -5
191 -3
192 -3
193 -6
194 -2
195 9
196 -6
197 2
198 -6
199 -3
200 0
201 1
202 0
203 3
204 -3
205 -6
206 5
207 9
208 -8
209 8
210 5
211 9
212 8
213 2
214 10
215 2
216 -6
217 -7
218 -9
219 -6
220 9
221 -5
222 4
223 0
224 -5
225 2
226 -8
227 -10
228 9
229 4
230 -6
231 -9
232 -4
233 -9
234 -5
235 1
236 4
237 1
238 -3
239 -7
240 1
241 7
242 -1
243 0
244 -3
245 7
246 0
247 4
248 -5
249 3
250 4
251 2
252 -6
253 3
254 1
255 2
256 6
257 -4
258 -5
259 8
260 10
261 1
262 4
263 -7
264 7
265 2
266 3
267 -1
268 -9
269 7
270 -9
271 -1
272 0
273 3
274 -4
275 7
276 -7
277 8
278 -4
279 -4
280 0
281 1
282 -1
283 -3
284 0
285 -2
286 -9
287 -10
288 -5
289 -5
290 -8
291 2
292 -6
293 7
294 -6
295 -2
296 -7
297 0
298 7
299 -4
300 3
301 -8
302 0
303 -3
304 -4
305 2
306 8
307 9
308 -9
309 5
310 9
311 9
312 4
313 2
314 -7
315 -5
316 -2
317 0
318 -8
319 5
320 1
321 -2
322 -7
323 6
324 -8
325 -8
326 -4
327 -1
328 -7
329 -1
330 -2
331 -10
332 -2
333 -3
334 -6
335 1
336 5
337 -2
338 -6
339 9
340 -2
341 -8
342 -7
343 1
344 8
345 -5
346 7
347 -8
348 -5
349 -10
350 8
351 -3
352 -6
353 5
354 -6
355 -5
356 3
357 -6
358 5
359 1
360 4
361 4
362 0
363 -4
364 6
365 6
366 10
367 -4
368 0
369 -5
370 6
371 7
372 8
373 -8
374 3
375 0
376 5
377 -5
378 9
379 -8
380 2
381 0
382 -5
383 -1
384 -8
385 7
386 9
387 -6
388 -5
389 -9
390 0
391 4
392 5
393 8
394 0
395 2
396 2
397 7
398 2
399 -7
400 5
EOF